<?xml version = "1.0" standalone="yes"?>
<!-- This file has been generated by DOcplex version 2.23.222  -->
<CPLEXSolution version="1.0">
 <header
   problemName="CVRP"
   objectiveValue="16804.5"
  />
 <variables>
  <variable name="x_0_3" index="2" value="1.00000"/>
  <variable name="x_0_4" index="3" value="1.00000"/>
  <variable name="x_0_6" index="5" value="1.00000"/>
  <variable name="x_0_7" index="6" value="1.00000"/>
  <variable name="x_0_8" index="7" value="1.00000"/>
  <variable name="x_0_9" index="8" value="1.00000"/>
  <variable name="x_0_11" index="10" value="1.00000"/>
  <variable name="x_0_13" index="12" value="1.00000"/>
  <variable name="x_0_14" index="13" value="1.00000"/>
  <variable name="x_0_15" index="14" value="1.00000"/>
  <variable name="x_0_21" index="20" value="1.00000"/>
  <variable name="x_0_22" index="21" value="1.00000"/>
  <variable name="x_0_23" index="22" value="1.00000"/>
  <variable name="x_1_0" index="23" value="1.00000"/>
  <variable name="x_2_0" index="46" value="1.00000"/>
  <variable name="x_3_0" index="69" value="1.00000"/>
  <variable name="x_4_12" index="103" value="1.00000"/>
  <variable name="x_5_1" index="116" value="1.00000"/>
  <variable name="x_6_20" index="157" value="1.00000"/>
  <variable name="x_7_2" index="163" value="1.00000"/>
  <variable name="x_8_0" index="184" value="1.00000"/>
  <variable name="x_9_0" index="207" value="1.00000"/>
  <variable name="x_10_0" index="230" value="1.00000"/>
  <variable name="x_11_16" index="268" value="1.00000"/>
  <variable name="x_12_0" index="276" value="1.00000"/>
  <variable name="x_13_17" index="315" value="1.00000"/>
  <variable name="x_14_18" index="339" value="1.00000"/>
  <variable name="x_15_10" index="355" value="1.00000"/>
  <variable name="x_16_5" index="373" value="1.00000"/>
  <variable name="x_17_0" index="391" value="1.00000"/>
  <variable name="x_18_0" index="414" value="1.00000"/>
  <variable name="x_19_0" index="437" value="1.00000"/>
  <variable name="x_20_0" index="460" value="1.00000"/>
  <variable name="x_21_0" index="483" value="1.00000"/>
  <variable name="x_22_0" index="506" value="1.00000"/>
  <variable name="x_23_19" index="548" value="1.00000"/>
  <variable name="u_1" index="552" value="69.00000"/>
  <variable name="u_2" index="553" value="69.00000"/>
  <variable name="u_3" index="554" value="63.00000"/>
  <variable name="u_4" index="555" value="53.00000"/>
  <variable name="u_5" index="556" value="65.00000"/>
  <variable name="u_6" index="557" value="22.00000"/>
  <variable name="u_7" index="558" value="42.00000"/>
  <variable name="u_8" index="559" value="69.00000"/>
  <variable name="u_9" index="560" value="69.00000"/>
  <variable name="u_10" index="561" value="65.00000"/>
  <variable name="u_11" index="562" value="41.00000"/>
  <variable name="u_12" index="563" value="67.00000"/>
  <variable name="u_13" index="564" value="37.00000"/>
  <variable name="u_14" index="565" value="15.00000"/>
  <variable name="u_15" index="566" value="13.00000"/>
  <variable name="u_16" index="567" value="42.00000"/>
  <variable name="u_17" index="568" value="69.00000"/>
  <variable name="u_18" index="569" value="69.00000"/>
  <variable name="u_19" index="570" value="69.00000"/>
  <variable name="u_20" index="571" value="69.00000"/>
  <variable name="u_21" index="572" value="69.00000"/>
  <variable name="u_22" index="573" value="67.00000"/>
  <variable name="u_23" index="574" value="21.00000"/>
 </variables>
</CPLEXSolution>
